
Welcome to IBM(R) ILOG(R) CPLEX(R) Interactive Optimizer 22.1.1.0
  with Simplex, Mixed Integer & Barrier Optimizers
5725-A06 5725-A29 5724-Y48 5724-Y49 5724-Y54 5724-Y55 5655-Y21
Copyright IBM Corp. 1988, 2022.  All Rights Reserved.

Type 'help' for a list of available commands.
Type 'help' followed by a command name for more
information on commands.

CPLEX> Selected objective sense:  MINIMIZE
Selected objective  name:  00000000
Selected RHS        name:  RHS1
Selected bound      name:  BOUND
Problem 'ee.mps' read.
Read time = 0.02 sec. (3.17 ticks)
CPLEX> New value for time limit in seconds: 7200
CPLEX> New value for parallel optimization mode: -1
CPLEX> New value for default parallel thread count: 40
CPLEX> New value for mixed integer optimality gap tolerance: 1e-13
CPLEX> Version identifier: 22.1.1.0 | 2022-11-28 | 9160aff4d
CPXPARAM_Threads                                 40
CPXPARAM_Parallel                                -1
CPXPARAM_TimeLimit                               7200
CPXPARAM_MIP_Tolerances_MIPGap                   1e-13
Found incumbent of value 0.000000 after 0.00 sec. (0.31 ticks)
Tried aggregator 2 times.
MIP Presolve eliminated 184 rows and 2745 columns.
MIP Presolve modified 6090 coefficients.
Aggregator did 713 substitutions.
Reduced MIP has 3636 rows, 7840 columns, and 28952 nonzeros.
Reduced MIP has 7840 binaries, 0 generals, 0 SOSs, and 0 indicators.
Presolve time = 0.07 sec. (69.15 ticks)
Probing time = 0.03 sec. (6.05 ticks)
Tried aggregator 1 time.
Detecting symmetries...
Reduced MIP has 3636 rows, 7840 columns, and 28952 nonzeros.
Reduced MIP has 7840 binaries, 0 generals, 0 SOSs, and 0 indicators.
Presolve time = 0.02 sec. (22.10 ticks)
Probing time = 0.02 sec. (5.80 ticks)
Clique table members: 18787.
MIP emphasis: balance optimality and feasibility.
MIP search method: dynamic search.
Parallel mode: opportunistic, using up to 40 threads.
Root relaxation solution time = 0.12 sec. (101.10 ticks)

        Nodes                                         Cuts/
   Node  Left     Objective  IInf  Best Integer    Best Bound    ItCnt     Gap

*     0+    0                            0.0000  -1.54000e+13              --- 
*     0+    0                      -3.60000e+12  -1.54000e+13           327.78%
*     0+    0                      -4.80000e+12  -1.54000e+13           220.83%
*     0+    0                      -6.00000e+12  -1.54000e+13           156.67%
*     0+    0                      -6.99000e+12  -1.54000e+13           120.31%
*     0+    0                      -7.20000e+12  -1.54000e+13           113.89%
      0     0  -1.53900e+13   116  -7.20000e+12  -1.53900e+13     2376  113.75%
*     0+    0                      -1.53900e+13  -1.53900e+13             0.00%
      0     0  -1.53900e+13   222  -1.53900e+13     Cuts: 103     4227    0.00%
      0     0  -1.53900e+13   242  -1.53900e+13      Cuts: 85     4519    0.00%
*     0+    0                      -1.53900e+13  -1.53900e+13             0.00%
      0     2  -1.53900e+13   201  -1.53900e+13  -1.53900e+13     4519    0.00%
Elapsed time = 3.09 sec. (1785.07 ticks, tree = 0.02 MB, solutions = 8)
     93    17  -1.53900e+13   120  -1.53900e+13  -1.53900e+13     9646    0.00%
    383    87  -1.53900e+13    89  -1.53900e+13  -1.53900e+13    68021    0.00%
    835    88  -1.53900e+13   212  -1.53900e+13  -1.53900e+13    71562    0.00%
   1232   126  -1.53900e+13   156  -1.53900e+13  -1.53900e+13    86138    0.00%
   1514   390  -1.53900e+13   128  -1.53900e+13  -1.53900e+13   185837    0.00%
   1763   211  -1.53900e+13   117  -1.53900e+13  -1.53900e+13   115117    0.00%
   2026   386  -1.53900e+13   144  -1.53900e+13  -1.53900e+13   181990    0.00%
   2233   417  -1.53900e+13    74  -1.53900e+13  -1.53900e+13   194025    0.00%
   2468   669  -1.53900e+13    34  -1.53900e+13  -1.53900e+13   277762    0.00%
   3467  1143    infeasible        -1.53900e+13  -1.53900e+13   506240    0.00%
Elapsed time = 8.86 sec. (4897.31 ticks, tree = 4.18 MB, solutions = 11)
   4674  1674  -1.53900e+13   109  -1.53900e+13  -1.53900e+13   766681    0.00%
   5649  1488  -1.53900e+13    72  -1.53900e+13  -1.53900e+13   679815    0.00%
   6504  2155  -1.53900e+13   165  -1.53900e+13  -1.53900e+13   959538    0.00%
   7182  2404    infeasible        -1.53900e+13  -1.53900e+13  1069826    0.00%
   7750  3338  -1.53900e+13   205  -1.53900e+13  -1.53900e+13  1636628    0.00%
   8224  3343  -1.53900e+13   177  -1.53900e+13  -1.53900e+13  1641275    0.00%
   8670  3361        cutoff        -1.53900e+13  -1.53900e+13  1666683    0.00%
   9219  3371  -1.53900e+13   292  -1.53900e+13  -1.53900e+13  1678344    0.00%
   9548  3341  -1.53900e+13   148  -1.53900e+13  -1.53900e+13  1647787    0.00%
   9741  3521  -1.53900e+13   166  -1.53900e+13  -1.53900e+13  1791790    0.00%
Elapsed time = 20.19 sec. (14465.65 ticks, tree = 21.32 MB, solutions = 11)

Performing restart 1

Repeating presolve.
Tried aggregator 2 times.
MIP Presolve eliminated 29 rows and 55 columns.
MIP Presolve modified 1865 coefficients.
Aggregator did 24 substitutions.
Reduced MIP has 3508 rows, 7761 columns, and 28095 nonzeros.
Reduced MIP has 7761 binaries, 0 generals, 0 SOSs, and 0 indicators.
Presolve time = 0.06 sec. (49.38 ticks)
Tried aggregator 2 times.
MIP Presolve eliminated 24 rows and 74 columns.
MIP Presolve modified 28 coefficients.
Aggregator did 27 substitutions.
Reduced MIP has 3457 rows, 7648 columns, and 27695 nonzeros.
Reduced MIP has 7648 binaries, 0 generals, 0 SOSs, and 0 indicators.
Presolve time = 0.05 sec. (47.16 ticks)
Tried aggregator 1 time.
Reduced MIP has 3457 rows, 7648 columns, and 27695 nonzeros.
Reduced MIP has 7648 binaries, 0 generals, 0 SOSs, and 0 indicators.
Presolve time = 0.03 sec. (21.69 ticks)
Represolve time = 0.37 sec. (248.98 ticks)
   9766     0  -1.53900e+13   415  -1.53900e+13      Cuts: 20  2212522    0.00%
   9766     0  -1.53900e+13   361  -1.53900e+13      Cuts: 15  2212652    0.00%
   9766     0  -1.53900e+13   357  -1.53900e+13      Cuts: 20  2213075    0.00%
   9766     0  -1.53900e+13   432  -1.53900e+13      Cuts: 32  2213293    0.00%
   9766     0  -1.53900e+13   351  -1.53900e+13      Cuts: 17  2213731    0.00%
   9766     0  -1.53900e+13   402  -1.53900e+13      Cuts: 39  2213895    0.00%
   9766     0  -1.53900e+13   332  -1.53900e+13      Cuts: 35  2214040    0.00%
   9766     0  -1.53900e+13   400  -1.53900e+13      Cuts: 39  2214106    0.00%
   9766    10    infeasible        -1.53900e+13  -1.53900e+13  2263489    0.00%
  10101     5  -1.53900e+13   277  -1.53900e+13  -1.53900e+13  2219252    0.00%
  10246    10  -1.53900e+13   280  -1.53900e+13  -1.53900e+13  2265616    0.00%

GUB cover cuts applied:  2
Clique cuts applied:  9
Cover cuts applied:  286
Mixed integer rounding cuts applied:  30
Zero-half cuts applied:  48
Lift and project cuts applied:  8
Gomory fractional cuts applied:  15

Root node processing (before b&c):
  Real time             =    1.89 sec. (1760.99 ticks)
Parallel b&c, 40 threads:
  Real time             =   27.16 sec. (20355.40 ticks)
  Sync time (average)   =    3.72 sec.
  Wait time (average)   =    0.09 sec.
                          ------------
Total (root+branch&cut) =   29.05 sec. (22116.39 ticks)

Solution pool: 11 solutions saved.

MIP - Integer optimal solution:  Objective = -1.5389998189e+13
Solution time =   29.16 sec.  Iterations = 2319173  Nodes = 10258
Deterministic time = 22116.42 ticks  (758.47 ticks/sec)

CPLEX> Solution 'p12' written to file 'ee.sol'.
CPLEX> 